NAME: CMT11_4
TYPE: CVRP
COMMENT: 1042.11 - Cluster Nr.4
DIMENSION: 21
CAPACITY: 200
EDGE_WEIGHT_TYPE: EUC_2D
NODE_COORD_TYPE: TWOD_COORDS
NODE_COORD_SECTION: 
16 73 6
5 76 6
18 79 5
13 76 10
20 82 3
19 85 1
10 82 7
8 76 13
6 87 7
9 78 3
2 84 9
3 73 8
4 87 5
14 84 5
17 79 11
21 79 3
11 78 9
1 85 8
7 10 45
12 84 3
15 90 15
DEPOT_SECTION: 
7
-1
DEMAND_SECTION: 
7 0
14 10
19 7
20 6
21 8
4 2
2 3
13 4
18 16
12 11
9 12
17 15
3 18
15 9
16 13
1 4
11 13
10 5
5 17
8 7
6 4
EOF
